Tried aggregator 1 time.
MIP Presolve eliminated 767 rows and 369 columns.
MIP Presolve modified 150896 coefficients.
Reduced MIP has 1691 rows, 1831 columns, and 188369 nonzeros.
Reduced MIP has 1831 binaries, 0 generals, 0 SOSs, and 0 indicators.
Presolve time = 0,90 sec. (1045,87 ticks)
Probing time = 0,02 sec. (13,29 ticks)
Tried aggregator 1 time.
MIP Presolve eliminated 8 rows and 1 columns.
MIP Presolve modified 25834 coefficients.
Reduced MIP has 1682 rows, 1830 columns, and 186376 nonzeros.
Reduced MIP has 1830 binaries, 0 generals, 0 SOSs, and 0 indicators.
Presolve time = 0,55 sec. (500,95 ticks)
Probing time = 0,02 sec. (11,65 ticks)
Clique table members: 6804.
MIP emphasis: balance optimality and feasibility.
MIP search method: dynamic search.
Parallel mode: deterministic, using up to 8 threads.
Root relaxation solution time = 0,97 sec. (460,18 ticks)

        Nodes                                         Cuts/
   Node  Left     Objective  IInf  Best Integer    Best Bound    ItCnt     Gap

*     0+    0                          391,0000        0,0000           100,00%
*     0+    0                          362,0000        0,0000           100,00%
*     0+    0                          340,0000        0,0000           100,00%
*     0+    0                          338,0000        0,0000           100,00%
      0     0      238,3743   119      338,0000      238,3743     2683   29,48%
*     0+    0                          332,0000      238,3743            28,20%
      0     0      268,4565   111      332,0000     Cuts: 166     4130   19,14%
      0     0      274,0941    86      332,0000     Cuts: 123     5783   17,44%
      0     0      276,8715   109      332,0000      Cuts: 91     6583   16,60%
*     0+    0                          296,0000      276,8715             6,46%
*     0+    0                          295,0000      276,8715             6,15%
*     0+    0                          293,0000      276,8715             5,50%
      0     0      279,1373   135      293,0000     Cuts: 101     7531    4,73%
      0     0      280,7941   141      293,0000      Cuts: 88     7837    4,17%
      0     0      281,5156   128      293,0000      Cuts: 45     8187    3,92%
      0     0      281,7573   144      293,0000      Cuts: 47     8387    3,84%
      0     0      281,8741   143      293,0000      Cuts: 26     8571    3,80%
      0     0      282,1249   127      293,0000      Cuts: 26     8686    3,71%

Repeating presolve.
Tried aggregator 1 time.
MIP Presolve eliminated 626 rows and 478 columns.
MIP Presolve modified 35811 coefficients.
Reduced MIP has 1055 rows, 1352 columns, and 101112 nonzeros.
Reduced MIP has 1352 binaries, 0 generals, 0 SOSs, and 0 indicators.
Presolve time = 0,51 sec. (567,41 ticks)
Probing time = 0,02 sec. (9,57 ticks)
Tried aggregator 1 time.
MIP Presolve eliminated 4 rows and 0 columns.
MIP Presolve modified 269 coefficients.
Reduced MIP has 1051 rows, 1352 columns, and 100662 nonzeros.
Reduced MIP has 1352 binaries, 0 generals, 0 SOSs, and 0 indicators.
Presolve time = 0,14 sec. (113,47 ticks)
Represolve time = 0,76 sec. (732,37 ticks)
Probing time = 0,02 sec. (9,36 ticks)
Clique table members: 3876.
MIP emphasis: balance optimality and feasibility.
MIP search method: dynamic search.
Parallel mode: deterministic, using up to 8 threads.
Root relaxation solution time = 0,58 sec. (404,00 ticks)

        Nodes                                         Cuts/
   Node  Left     Objective  IInf  Best Integer    Best Bound    ItCnt     Gap

*     0+    0                          293,0000      282,1249             3,71%
      0     0      282,2292   138      293,0000      282,2292     8710    3,68%
      0     0      282,6121   117      293,0000      Cuts: 25     8901    3,55%
      0     0      282,7209   152      293,0000      Cuts: 26     9111    3,51%
      0     0      282,9576   159      293,0000      Cuts: 31     9325    3,43%
*     0+    0                          291,0000      282,9576             2,76%
      0     0      283,2336   164      291,0000      Cuts: 20     9511    2,67%
      0     0      283,4634   139      291,0000      Cuts: 27     9659    2,59%
      0     0      283,6044   148      291,0000      Cuts: 27     9811    2,54%
      0     0      283,8696   149      291,0000      Cuts: 15     9997    2,45%
      0     0      283,9669   155      291,0000      Cuts: 33    10186    2,42%
      0     0      284,0024   162      291,0000      Cuts: 30    10285    2,40%
      0     0      284,0240   166      291,0000      Cuts: 14    10367    2,40%
*     0+    0                          290,0000      284,0240             2,06%
      0     0      284,1035   149      290,0000      Cuts: 19    10510    2,03%
      0     0      284,1182   150      290,0000      Cuts: 20    10579    2,03%
      0     2      284,1182   148      290,0000      284,1182    10579    2,03%
Elapsed time = 12,96 sec. (10422,92 ticks, tree = 0,01 MB, solutions = 10)
*    36+   17                          288,0000      284,1329             1,34%
    171    85      286,3818    89      288,0000      284,2891    19351    1,29%
*   439   192      integral     0      287,0000      284,6250    31068    0,83%
    567     5      285,3277   155      287,0000      285,1888    36794    0,63%

GUB cover cuts applied:  68
Clique cuts applied:  56
Cover cuts applied:  11
Implied bound cuts applied:  183
Flow cuts applied:  5
Mixed integer rounding cuts applied:  26
Zero-half cuts applied:  7

Root node processing (before b&c):
  Real time             =   12,93 sec. (10385,74 ticks)
Parallel b&c, 8 threads:
  Real time             =    2,02 sec. (815,54 ticks)
  Sync time (average)   =    0,56 sec.
  Wait time (average)   =    0,00 sec.
                          ------------
Total (root+branch&cut) =   14,95 sec. (11201,28 ticks)

